NAME: instance_354
TYPE: TSP
DIMENSION: 20
EDGE_WEIGHT_TYPE: EUC_2D
NODE_COORD_SECTION
0 15.46 29.50
1 5.20 38.62
2 87.45 95.88
3 9.96 70.77
4 65.93 8.72
5 99.97 55.37
6 29.06 81.13
7 54.28 14.33
8 97.18 1.91
9 33.53 31.28
10 18.17 2.77
11 55.45 34.74
12 21.77 29.31
13 20.00 65.94
14 62.81 94.37
15 49.64 19.06
16 34.62 60.29
17 39.63 73.81
18 13.92 28.08
19 64.37 71.88
EOF
